1
500
2.72500000e+00 1.18899449e+01
2.78300553e+00 1.21738531e+01
2.84224578e+00 1.24683651e+01
2.90274705e+00 1.27739644e+01
2.96453618e+00 1.30911578e+01
3.02764058e+00 1.34204769e+01
3.09208824e+00 1.37624785e+01
3.15790777e+00 1.41177461e+01
3.22512835e+00 1.44868908e+01
3.29377983e+00 1.48705521e+01
3.36389265e+00 1.52693995e+01
3.43549792e+00 1.56841331e+01
3.50862741e+00 1.61154851e+01
3.58331357e+00 1.65642207e+01
3.65958953e+00 1.70311393e+01
3.73748913e+00 1.75170759e+01
3.81704694e+00 1.80229021e+01
3.89829825e+00 1.85495274e+01
3.98127911e+00 1.90979004e+01
4.06602633e+00 1.96690102e+01
4.15257752e+00 2.02638877e+01
4.24097108e+00 2.08836069e+01
4.33124622e+00 2.15292861e+01
4.42344300e+00 2.22020896e+01
4.51760231e+00 2.29032288e+01
4.61376595e+00 2.36339641e+01
4.71197656e+00 2.43956058e+01
4.81227773e+00 2.51895161e+01
4.91471395e+00 2.60171105e+01
5.01933067e+00 2.68798594e+01
5.12617431e+00 2.77792896e+01
5.23529227e+00 2.87169864e+01
5.34673296e+00 2.96945950e+01
5.46054583e+00 3.07138222e+01
5.57678136e+00 3.17764387e+01
5.69549114e+00 3.28842806e+01
5.81672782e+00 3.40392517e+01
5.94054520e+00 3.52433253e+01
6.06699821e+00 3.64985463e+01
6.19614295e+00 3.78070337e+01
6.32803673e+00 3.91709826e+01
6.46273805e+00 4.05926665e+01
6.60030668e+00 4.20744400e+01
6.74080366e+00 4.36187413e+01
6.88429131e+00 4.52280946e+01
7.03083331e+00 4.69051129e+01
7.18049466e+00 4.86525010e+01
7.33334177e+00 5.04730583e+01
7.48944245e+00 5.23696819e+01
7.64886595e+00 5.43453696e+01
7.81168302e+00 5.64032234e+01
7.97796587e+00 5.85464528e+01
8.14778830e+00 6.07783781e+01
8.32122564e+00 6.31024343e+01
8.49835484e+00 6.55221747e+01
8.67925449e+00 6.80412750e+01
8.86400485e+00 7.06635370e+01
9.05268788e+00 7.33928928e+01
9.24538730e+00 7.62334092e+01
9.44218861e+00 7.91892921e+01
9.64317911e+00 8.22648909e+01
9.84844798e+00 8.54647033e+01
1.00580863e+01 8.87933801e+01
1.02721871e+01 9.22557301e+01
1.04908453e+01 9.58567251e+01
1.07141579e+01 9.96015055e+01
1.09422241e+01 1.03495385e+02
1.11751450e+01 1.07543858e+02
1.14130240e+01 1.11752602e+02
1.16559665e+01 1.16127487e+02
1.19040805e+01 1.20674579e+02
1.21574759e+01 1.25400147e+02
1.24162652e+01 1.30310671e+02
1.26805631e+01 1.35412844e+02
1.29504871e+01 1.40713585e+02
1.32261567e+01 1.46220041e+02
1.35076944e+01 1.51939595e+02
1.37952250e+01 1.57879875e+02
1.40888761e+01 1.64048760e+02
1.43887780e+01 1.70454388e+02
1.46950638e+01 1.77105165e+02
1.50078693e+01 1.84009770e+02
1.53273332e+01 1.91177168e+02
1.56535975e+01 1.98616613e+02
1.59868067e+01 2.06337661e+02
1.63271088e+01 2.14350180e+02
1.66746547e+01 2.22664355e+02
1.70295986e+01 2.31290699e+02
1.73920979e+01 2.40240066e+02
1.77623136e+01 2.49523658e+02
1.81404099e+01 2.59153037e+02
1.85265545e+01 2.69140135e+02
1.89209188e+01 2.79497266e+02
1.93236776e+01 2.90237136e+02
1.97350097e+01 3.01372860e+02
2.01550977e+01 3.12917965e+02
2.05841278e+01 3.24886415e+02
2.10222904e+01 3.37292614e+02
2.14697800e+01 3.50151424e+02
2.19267950e+01 3.63478181e+02
2.23935382e+01 3.77288708e+02
2.28702167e+01 3.91599328e+02
2.33570420e+01 4.06426887e+02
2.38542301e+01 4.21788765e+02
2.43620015e+01 4.37702894e+02
2.48805816e+01 4.54187780e+02
2.54102004e+01 4.71262521e+02
2.59510929e+01 4.88946825e+02
2.65034991e+01 5.07261034e+02
2.70676640e+01 5.26226144e+02
2.76438380e+01 5.45863832e+02
2.82322766e+01 5.66196478e+02
2.88332411e+01 5.87247192e+02
2.94469979e+01 6.09039842e+02
3.00738194e+01 6.31599083e+02
3.07139837e+01 6.54950391e+02
3.13677748e+01 6.79120091e+02
3.20354828e+01 7.04135394e+02
3.27174039e+01 7.30024438e+02
3.34138407e+01 7.56816322e+02
3.41251021e+01 7.84541151e+02
3.48515038e+01 8.13230083e+02
3.55933679e+01 8.42915371e+02
3.63510237e+01 8.73630419e+02
3.71248073e+01 9.05409833e+02
3.79150620e+01 9.38289483e+02
3.87221384e+01 9.72306557e+02
3.95463945e+01 1.00749963e+03
4.03881962e+01 1.04390875e+03
4.12479167e+01 1.08157547e+03
4.21259377e+01 1.12054297e+03
4.30226486e+01 1.16085611e+03
4.39384473e+01 1.20256156e+03
4.48737400e+01 1.24570784e+03
4.58289418e+01 1.29034546e+03
4.68044764e+01 1.33652699e+03
4.78007767e+01 1.38430723e+03
4.88182847e+01 1.43374326e+03
4.98574518e+01 1.48489463e+03
5.09187390e+01 1.53782343e+03
5.20026173e+01 1.59259448e+03
5.31095674e+01 1.64927545e+03
5.42400806e+01 1.70793703e+03
5.53946584e+01 1.76865308e+03
5.65738130e+01 1.83150083e+03
5.77780676e+01 1.89656101e+03
5.90079565e+01 1.96391809e+03
6.02640253e+01 2.03366046e+03
6.15468314e+01 2.10588064e+03
6.28569438e+01 2.18067549e+03
6.41949438e+01 2.25814646e+03
6.55614251e+01 2.33839982e+03
6.69569939e+01 2.42154690e+03
6.83822694e+01 2.50770438e+03
6.98378839e+01 2.59699454e+03
7.13244832e+01 2.68954558e+03
7.28427270e+01 2.78549188e+03
7.43932887e+01 2.88497433e+03
7.59768564e+01 2.98814067e+03
7.75941325e+01 3.09514585e+03
7.92458347e+01 3.20615231e+03
8.09326958e+01 3.32133043e+03
8.26554641e+01 3.44085891e+03
8.44149040e+01 3.56492512e+03
8.62117960e+01 3.69372558e+03
8.80469375e+01 3.82746637e+03
8.99211427e+01 3.96636360e+03
9.18352429e+01 4.11064387e+03
9.37900876e+01 4.26054480e+03
9.57865438e+01 4.41631552e+03
9.78254976e+01 4.57821722e+03
9.99078533e+01 4.74652371e+03
1.02034535e+02 4.92152201e+03
1.04206486e+02 5.10351296e+03
1.06424670e+02 5.29281186e+03
1.08690072e+02 5.48974913e+03
1.11003696e+02 5.69467099e+03
1.13366568e+02 5.90794020e+03
1.15779738e+02 6.12993678e+03
1.18244275e+02 6.36105883e+03
1.20761274e+02 6.60172332e+03
1.23331851e+02 6.85236691e+03
1.25957146e+02 7.11344690e+03
1.28638324e+02 7.38544206e+03
1.31376575e+02 7.66885365e+03
1.34173113e+02 7.96420641e+03
1.37029180e+02 8.27204954e+03
1.39946042e+02 8.59295783e+03
1.42924994e+02 8.92753275e+03
1.45967357e+02 9.27640363e+03
1.49074482e+02 9.64022883e+03
1.52247745e+02 1.00196970e+04
1.55488557e+02 1.04155285e+04
1.58798353e+02 1.08284765e+04
1.62178603e+02 1.12593287e+04
1.65630807e+02 1.17089083e+04
1.69156496e+02 1.21780761e+04
1.72757234e+02 1.26677317e+04
1.76434619e+02 1.31788149e+04
1.80190283e+02 1.37123079e+04
1.84025891e+02 1.42692366e+04
1.87943145e+02 1.48506723e+04
1.91943784e+02 1.54577340e+04
1.96029583e+02 1.60915895e+04
2.00202353e+02 1.67534581e+04
2.04463947e+02 1.74446118e+04
2.08816254e+02 1.81663778e+04
2.13261207e+02 1.89201404e+04
2.17800777e+02 1.97073428e+04
2.22436979e+02 2.05294895e+04
2.27171868e+02 2.13881483e+04
2.32007547e+02 2.22849521e+04
2.36946160e+02 2.32216016e+04
2.41989898e+02 2.41998670e+04
2.47140999e+02 2.52215901e+04
2.52401749e+02 2.62886866e+04
2.57774482e+02 2.74031481e+04
2.63261581e+02 2.85670439e+04
2.68865480e+02 2.97825233e+04
2.74588667e+02 3.10518170e+04
2.80433680e+02 3.23772394e+04
2.86403112e+02 3.37611900e+04
2.92499613e+02 3.52061548e+04
2.98725886e+02 3.67147083e+04
3.05084694e+02 3.82895139e+04
3.11578858e+02 3.99333258e+04
3.18211260e+02 4.16489893e+04
3.24984843e+02 4.34394420e+04
3.31902610e+02 4.53077135e+04
3.38967632e+02 4.72569262e+04
3.46183044e+02 4.92902951e+04
3.53552046e+02 5.14111269e+04
3.61077907e+02 5.36228201e+04
3.68763967e+02 5.59288632e+04
3.76613636e+02 5.83328338e+04
3.84630397e+02 6.08383968e+04
3.92817805e+02 6.34493024e+04
4.01179495e+02 6.61693836e+04
4.09719174e+02 6.90025537e+04
4.18440634e+02 7.19528031e+04
4.27347742e+02 7.50241959e+04
4.36444450e+02 7.82208668e+04
4.45734795e+02 8.15470167e+04
4.55222898e+02 8.50069088e+04
4.64912969e+02 8.86048649e+04
4.74809308e+02 9.23452605e+04
4.84916304e+02 9.62325212e+04
4.95238441e+02 1.00271118e+05
5.05780301e+02 1.04465564e+05
5.16546558e+02 1.08820409e+05
5.27541991e+02 1.13340240e+05
5.38771478e+02 1.18029674e+05
5.50240000e+02 1.22893358e+05
5.61952646e+02 1.27935971e+05
5.73914613e+02 1.33162216e+05
5.86131207e+02 1.38576829e+05
5.98607849e+02 1.44184578e+05
6.11350074e+02 1.49990265e+05
6.24363536e+02 1.55998736e+05
6.37654007e+02 1.62214885e+05
6.51227386e+02 1.68643665e+05
6.65089693e+02 1.75290100e+05
6.79247079e+02 1.82159301e+05
6.93705826e+02 1.89256481e+05
7.08472348e+02 1.96586975e+05
7.23553196e+02 2.04156266e+05
7.38955061e+02 2.11970010e+05
7.54684778e+02 2.20034065e+05
7.70749324e+02 2.28354527e+05
7.87155827e+02 2.36937765e+05
8.03911565e+02 2.45790461e+05
8.21023974e+02 2.54919659e+05
8.38500645e+02 2.64332810e+05
8.56349331e+02 2.74037827e+05
8.74577953e+02 2.84043141e+05
8.93194597e+02 2.94357760e+05
9.12207522e+02 3.04991340e+05
9.31625165e+02 3.15954245e+05
9.51456141e+02 3.27257629e+05
9.71709247e+02 3.38913507e+05
9.92393469e+02 3.50934837e+05
1.01351799e+03 3.63335606e+05
1.03509217e+03 3.76130916e+05
1.05712559e+03 3.89337076e+05
1.07962802e+03 4.02971697e+05
1.10260944e+03 4.17053791e+05
1.12608007e+03 4.31603870e+05
1.15005029e+03 4.46644050e+05
1.17453076e+03 4.62198159e+05
1.19953233e+03 4.78291847e+05
1.22506609e+03 4.94952693e+05
1.25114338e+03 5.12210323e+05
1.27777575e+03 5.30096525e+05
1.30497504e+03 5.48645365e+05
1.33275330e+03 5.67893311e+05
1.36112286e+03 5.87879349e+05
1.39009631e+03 6.08645109e+05
1.41968650e+03 6.30234992e+05
1.44990656e+03 6.52696292e+05
1.48076990e+03 6.76079328e+05
1.51229021e+03 7.00437572e+05
1.54448147e+03 7.25827780e+05
1.57735797e+03 7.52310126e+05
1.61093429e+03 7.79948338e+05
1.64522533e+03 8.08809829e+05
1.68024631e+03 8.38965845e+05
1.71601276e+03 8.70491599e+05
1.75254055e+03 9.03466415e+05
1.78984588e+03 9.37973879e+05
1.82794531e+03 9.74101981e+05
1.86685575e+03 1.01194327e+06
1.90659444e+03 1.05159503e+06
1.94717904e+03 1.09315938e+06
1.98862753e+03 1.13674351e+06
2.03095831e+03 1.18245982e+06
2.07419017e+03 1.23042606e+06
2.11834228e+03 1.28076556e+06
2.16343422e+03 1.33360741e+06
2.20948602e+03 1.38908659e+06
2.25651809e+03 1.44734426e+06
2.30455131e+03 1.50852787e+06
2.35360698e+03 1.57279147e+06
2.40370688e+03 1.64029583e+06
2.45487322e+03 1.71120877e+06
2.50712871e+03 1.78570532e+06
2.56049654e+03 1.86396801e+06
2.61500037e+03 1.94618713e+06
2.67066440e+03 2.03256099e+06
2.72751331e+03 2.12329623e+06
2.78557234e+03 2.21860807e+06
2.84486723e+03 2.31872067e+06
2.90542431e+03 2.42386745e+06
2.96727042e+03 2.53429138e+06
3.03043302e+03 2.65024541e+06
3.09494013e+03 2.77199281e+06
3.16082036e+03 2.89980754e+06
3.22810294e+03 3.03397469e+06
3.29681774e+03 3.17479090e+06
3.36699522e+03 3.32256481e+06
3.43866654e+03 3.47761752e+06
3.51186348e+03 3.64028311e+06
3.58661852e+03 3.81090910e+06
3.66296483e+03 3.98985705e+06
3.74093628e+03 4.17750308e+06
3.82056746e+03 4.37423849e+06
3.90189371e+03 4.58047034e+06
3.98495111e+03 4.79662214e+06
4.06977649e+03 5.02313448e+06
4.15640751e+03 5.26046576e+06
4.24488260e+03 5.50909293e+06
4.33524100e+03 5.76951224e+06
4.42752281e+03 6.04224007e+06
4.52176897e+03 6.32781372e+06
4.61802130e+03 6.62679237e+06
4.71632250e+03 6.93975791e+06
4.81671617e+03 7.26731596e+06
4.91924687e+03 7.61009683e+06
5.02396008e+03 7.96875660e+06
5.13090227e+03 8.34397815e+06
5.24012087e+03 8.73647238e+06
5.35166434e+03 9.14697931e+06
5.46558218e+03 9.57626939e+06
5.58192492e+03 1.00251447e+07
5.70074418e+03 1.04944405e+07
5.82209269e+03 1.09850263e+07
5.94602426e+03 1.14978077e+07
6.07259390e+03 1.20337275e+07
6.20185776e+03 1.25937677e+07
6.33387318e+03 1.31789511e+07
6.46869874e+03 1.37903427e+07
6.60639425e+03 1.44290517e+07
6.74702081e+03 1.50962337e+07
6.89064081e+03 1.57930922e+07
7.03731796e+03 1.65208808e+07
7.18711735e+03 1.72809054e+07
7.34010543e+03 1.80745263e+07
7.49635009e+03 1.89031609e+07
7.65592063e+03 1.97682855e+07
7.81888786e+03 2.06714384e+07
7.98532408e+03 2.16142220e+07
8.15530314e+03 2.25983061e+07
8.32890044e+03 2.36254303e+07
8.50619301e+03 2.46974072e+07
8.68725951e+03 2.58161254e+07
8.87218027e+03 2.69835530e+07
9.06103732e+03 2.82017404e+07
9.25391448e+03 2.94728243e+07
9.45089729e+03 3.07990314e+07
9.65207317e+03 3.21826819e+07
9.85753137e+03 3.36261934e+07
1.00673630e+04 3.51320856e+07
1.02816613e+04 3.67029841e+07
1.05005212e+04 3.83416250e+07
1.07240398e+04 4.00508598e+07
1.09523163e+04 4.18336601e+07
1.11854521e+04 4.36931227e+07
1.14235504e+04 4.56324749e+07
1.16667170e+04 4.76550801e+07
1.19150598e+04 4.97644437e+07
1.21686889e+04 5.19642187e+07
1.24277169e+04 5.42582124e+07
1.26922586e+04 5.66503926e+07
1.29624315e+04 5.91448947e+07
1.32383554e+04 6.17460285e+07
1.35201528e+04 6.44582857e+07
1.38079486e+04 6.72863477e+07
1.41018705e+04 7.02350935e+07
1.44020491e+04 7.33096081e+07
1.47086173e+04 7.65151911e+07
1.50217113e+04 7.98573661e+07
1.53414699e+04 8.33418899e+07
1.56680350e+04 8.69747623e+07
1.60015516e+04 9.07622367e+07
1.63421675e+04 9.47108305e+07
1.66900340e+04 9.88273364e+07
1.70453052e+04 1.03118834e+08
1.74081390e+04 1.07592702e+08
1.77786961e+04 1.12256631e+08
1.81571411e+04 1.17118637e+08
1.85436419e+04 1.22187073e+08
1.89383698e+04 1.27470646e+08
1.93415001e+04 1.32978431e+08
1.97532117e+04 1.38719885e+08
2.01736871e+04 1.44704868e+08
2.06031129e+04 1.50943653e+08
2.10416796e+04 1.57446948e+08
2.14895819e+04 1.64225915e+08
2.19470184e+04 1.71292185e+08
2.24141921e+04 1.78657882e+08
2.28913103e+04 1.86335643e+08
2.33785846e+04 1.94338637e+08
2.38762312e+04 2.02680592e+08
2.43844710e+04 2.11375812e+08
2.49035294e+04 2.20439210e+08
2.54336367e+04 2.29886326e+08
2.59750280e+04 2.39733358e+08
2.65279437e+04 2.49997187e+08
2.70926290e+04 2.60695409e+08
2.76693343e+04 2.71846363e+08
2.82583157e+04 2.83469161e+08
2.88598344e+04 2.95583726e+08
2.94741573e+04 3.08210820e+08
3.01015570e+04 3.21372082e+08
3.07423117e+04 3.35090068e+08
3.13967058e+04 3.49388284e+08
3.20650297e+04 3.64291232e+08
3.27475797e+04 3.79824446e+08
3.34446588e+04 3.96014542e+08
3.41565763e+04 4.12889258e+08
3.48836479e+04 4.30477506e+08
3.56261963e+04 4.48809417e+08
3.63845509e+04 4.67916399e+08
3.71590482e+04 4.87831182e+08
3.79500317e+04 5.08587883e+08
3.87578524e+04 5.30222059e+08
3.95828688e+04 5.52770768e+08
4.04254469e+04 5.76272636e+08
4.12859604e+04 6.00767918e+08
4.21647911e+04 6.26298573e+08
4.30623291e+04 6.52908331e+08
4.39789724e+04 6.80642769e+08
4.49151278e+04 7.09549391e+08
4.58712106e+04 7.39677706e+08
4.68476450e+04 7.71079317e+08
4.78448642e+04 8.03808006e+08
4.88633106e+04 8.37919826e+08
4.99034361e+04 8.73473201e+08
5.09657022e+04 9.10529020e+08
5.20505802e+04 9.49150747e+08
5.31585513e+04 9.89404526e+08
5.42901071e+04 1.03135930e+09
5.54457498e+04 1.07508691e+09
5.66259920e+04 1.12066225e+09
5.78313573e+04 1.16816337e+09
5.90623805e+04 1.21767161e+09
6.03196078e+04 1.26927177e+09
6.16035970e+04 1.32305220e+09
6.29149178e+04 1.37910501e+09
6.42541519e+04 1.43752619e+09
6.56218935e+04 1.49841579e+09
6.70187495e+04 1.56187807e+09
6.84453395e+04 1.62802171e+09
6.99022965e+04 1.69695999e+09
7.13902670e+04 1.76881095e+09
7.29099110e+04 1.84369764e+09
7.44619029e+04 1.92174830e+09
7.60469311e+04 2.00309658e+09
7.76656989e+04 2.08788179e+09
7.93189245e+04 2.17624912e+09
8.10073413e+04 2.26834990e+09
8.27316986e+04 2.36434182e+09
8.44927612e+04 2.46438928e+09
8.62913106e+04 2.56866360e+09
8.81281447e+04 2.67734333e+09
9.00040784e+04 2.79061459e+09
9.19199441e+04 2.90867133e+09
9.38765917e+04 3.03171572e+09
9.58748894e+04 3.15995845e+09
9.79157236e+04 3.29361913e+09
1.00000000e+05 3.43292665e+09
